c This is UnifRandomKSATGenerator
c uniform random 3-SAT generated instance with: 
c clause length: 3 
c number variables: 10 
c number clauses: 43 
c clause to variable ratio: 4.27 
c random number generator name: SHA1PRNG 
c random number generator provider: SUN 
c random number generator seed: 6676812621181134739 
p cnf 10 43
-2 9 5 0
-1 -3 6 0
-1 -3 7 0
9 3 7 0
9 -10 -7 0
10 -7 -8 0
-9 4 5 0
-9 -5 -8 0
2 3 -6 0
1 -2 -6 0
-9 1 -8 0
10 4 -5 0
-1 8 10 0
-1 4 7 0
8 9 3 0
-9 10 -4 0
10 -6 -8 0
-9 -3 -7 0
-1 -10 4 0
9 5 -7 0
-10 4 -5 0
8 -1 -10 0
2 -3 -5 0
1 -5 7 0
-1 -4 6 0
-1 -2 5 0
9 1 5 0
1 9 -3 0
-1 10 -4 0
-9 -1 -2 0
-9 -2 -6 0
2 -4 -8 0
-2 -5 4 0
-1 2 6 0
-4 -6 7 0
8 -2 -5 0
-2 -3 6 0
1 2 7 0
-2 10 -3 0
-9 3 5 0
-9 10 7 0
-1 -9 -5 0
-9 10 3 0
